/* Objective function */
max: +3.5 G1S1 +4 G1S2 +3.7 G1S3 +3.1 G1S4 +3.8 G1S5 +3.2 G1S6 +3.6 G1S7 +3 G1S8 +3.3 G1S9 +3.7 G1S10 +4 G1S11
 +3.5 G1S12 +3.5 G2S1 +4 G2S2 +3.7 G2S3 +3.1 G2S4 +3.8 G2S5 +3.2 G2S6 +3.6 G2S7 +3 G2S8 +3.3 G2S9 +3.7 G2S10
 +4 G2S11 +3.5 G2S12 +3.5 G3S1 +4 G3S2 +3.7 G3S3 +3.1 G3S4 +3.8 G3S5 +3.2 G3S6 +3.6 G3S7 +3 G3S8 +3.3 G3S9
 +3.7 G3S10 +4 G3S11 +3.5 G3S12 +3.5 G4S1 +4 G4S2 +3.7 G4S3 +3.1 G4S4 +3.8 G4S5 +3.2 G4S6 +3.6 G4S7 +3 G4S8
 +3.3 G4S9 +3.7 G4S10 +4 G4S11 +3.5 G4S12;

/* Constraints */
Group1Students: +G1S1 +G1S2 +G1S3 +G1S4 +G1S5 +G1S6 +G1S7 +G1S8 +G1S9 +G1S10 +G1S11 +G1S12 = 3;
Group2Students: +G2S1 +G2S2 +G2S3 +G2S4 +G2S5 +G2S6 +G2S7 +G2S8 +G2S9 +G2S10 +G2S11 +G2S12 = 3;
Group3Students: +G3S1 +G3S2 +G3S3 +G3S4 +G3S5 +G3S6 +G3S7 +G3S8 +G3S9 +G3S10 +G3S11 +G3S12 = 3;
Group4Students: +G4S1 +G4S2 +G4S3 +G4S4 +G4S5 +G4S6 +G4S7 +G4S8 +G4S9 +G4S10 +G4S11 +G4S12 = 3;
Student1: +G1S1 +G2S1 +G3S1 +G4S1 = 1;
Student2: +G1S2 +G2S2 +G3S2 +G4S2 = 1;
Student3: +G1S3 +G2S3 +G3S3 +G4S3 = 1;
Student4: +G1S4 +G2S4 +G3S4 +G4S4 = 1;
Student5: +G1S5 +G2S5 +G3S5 +G4S5 = 1;
Student6: +G1S6 +G2S6 +G3S6 +G4S6 = 1;
Student7: +G1S7 +G2S7 +G3S7 +G4S7 = 1;
Student8: +G1S8 +G2S8 +G3S8 +G4S8 = 1;
Student9: +G1S9 +G2S9 +G3S9 +G4S9 = 1;
Student10: +G1S10 +G2S8 +G3S8 +G4S10 = 1;
Student11: +G1S11 +G2S11 +G3S11 +G4S11 = 1;
Student12: +G1S12 +G2S12 +G3S12 +G4S12 = 1;
Group1Factor1: +3.5 G1S1 +4 G1S2 +3.7 G1S3 +3.1 G1S4 +3.8 G1S5 +3.2 G1S6 +3.6 G1S7 +3 G1S8 +3.3 G1S9 +3.7 G1S10 +4 G1S11
 +3.5 G1S12 >= 3.53;
Group2Factor1: +3.5 G2S1 +4 G2S2 +3.7 G2S3 +3.1 G2S4 +3.8 G2S5 +3.2 G2S6 +3.6 G2S7 +3 G2S8 +3.3 G2S9 +3.7 G2S10 +4 G2S11
 +3.5 G2S12 >= 3.53;
Group3Factor1: +3.5 G3S1 +4 G3S2 +3.7 G3S3 +3.1 G3S4 +3.8 G3S5 +3.2 G3S6 +3.6 G3S7 +3 G3S8 +3.3 G3S9 +3.7 G3S10 +4 G3S11
 +3.5 G3S12 >= 3.53;
Group4Factor1: +3.5 G4S1 +4 G4S2 +3.7 G4S3 +3.1 G4S4 +3.8 G4S5 +3.2 G4S6 +3.6 G4S7 +3 G4S8 +3.3 G4S9 +3.7 G4S10 +4 G4S11
 +3.5 G4S12 >= 3.53;
Group1Factor2: +10 G1S1 +2 G1S2 +5 G1S3 +7 G1S4 +9 G1S5 +6 G1S6 +7 G1S7 +12 G1S8 +7 G1S9 +9 G1S10 +6 G1S11 +4 G1S12 >= 7;
Group2Factor2: +10 G2S1 +2 G2S2 +5 G2S3 +7 G2S4 +9 G2S5 +6 G2S6 +7 G2S7 +12 G2S8 +7 G2S9 +9 G2S10 +6 G2S11 +4 G2S12 >= 7;
Group3Factor2: +10 G3S1 +2 G3S2 +5 G3S3 +7 G3S4 +9 G3S5 +6 G3S6 +7 G3S7 +12 G3S8 +7 G3S9 +9 G3S10 +6 G3S11 +4 G3S12 >= 7;
Group4Factor2: +10 G4S1 +2 G4S2 +5 G4S3 +7 G4S4 +9 G4S5 +6 G4S6 +7 G4S7 +12 G4S8 +7 G4S9 +9 G4S10 +6 G4S11 +4 G4S12 >= 7;
Group1Factor3: +6 G1S1 +5 G1S2 +2 G1S3 +7 G1S4 +5 G1S5 +6 G1S6 +7 G1S7 +6 G1S8 +8 G1S9 +9 G1S10 +8 G1S11 +4 G1S12 >= 6.08;
Group2Factor3: +6 G2S1 +5 G2S2 +2 G2S3 +7 G2S4 +5 G2S5 +6 G2S6 +7 G2S7 +6 G2S8 +8 G2S9 +9 G2S10 +8 G2S11 +4 G2S12 >= 6.08;
Group3Factor3: +6 G3S1 +5 G3S2 +2 G3S3 +7 G3S4 +5 G3S5 +6 G3S6 +7 G3S7 +6 G3S8 +8 G3S9 +9 G3S10 +8 G3S11 +4 G3S12 >= 6.08;
Group4Factor3: +6 G4S1 +5 G4S2 +2 G4S3 +7 G4S4 +5 G4S5 +6 G4S6 +7 G4S7 +6 G4S8 +8 G4S9 +9 G4S10 +8 G4S11 +4 G4S12 >= 6.08;

/* Integer definitions */
int G1S1,G1S2,G1S3,G1S4,G1S5,G1S6,G1S7,G1S8,G1S9,G1S10,G1S11,G1S12,G2S1,G2S2,G2S3,G2S4,G2S5,G2S6,G2S7,G2S8,G2S9,G2S10,G2S11,G2S12,G3S1,G3S2,G3S3,G3S4,G3S5,G3S6,G3S7,G3S8,G3S9,G3S10,G3S11,G3S12,G4S1,G4S2,G4S3,G4S4,G4S5,G4S6,G4S7,G4S8,G4S9,G4S10,G4S11,G4S12;
